# Allocating 6 GB is usually safe for pVTZ
memory 6 GB

molecule water_dimer {
    0 1
    O  -1.551007  -0.114520   0.000000
    H  -1.934259   0.762503   0.000000
    H  -0.599677   0.040712   0.000000
    --
    0 1
    O   1.350625   0.111469   0.000000
    H   1.680398  -0.373741  -0.758561
    H   1.680398  -0.373741   0.758561

    units angstrom
    no_reorient
    symmetry c1
}

# CHANGED TO pVTZ to fit in memory
set basis aug-cc-pVTZ

energy('sapt2')

